blueprint = array2d(robots,  minerals, [ 
    2, 0, 0,
    2, 0, 0,
    2, 16, 0,
    2, 0, 4
  ]);

%blueprint[clay_robot, ore] = 4;
% blueprint[geode_robot, ore] = 2;
% blueprint[geode_robot, obsidian] = 4;
% blueprint[obsidian_robot, clay] = 16;
% blueprint[obsidian_robot, ore] = 2;
% blueprint[ore_robot, ore] = 2;
